JulietBench/Juliet_Based_Patch_Bench/linux/CWE-189-Numeric-Errors/CVE_2010_2478_db048b69037e7fa6a7d9e95a1271a50dc08ae233/solverethtool_get_rxnfc_Snippet_patch2.smt2
; benchmark generated from python API
(set-info :status unknown)
(declare-fun R () (_ BitVec 32))
(declare-fun rdi () (_ BitVec 64))
(assert
 (let (($x66 (and (distinct (_ bv4 32) R) true)))
 (let (($x50 (= (_ bv4294967295 32) R)))
 (let ((?x6 ((_ extract 31 0) rdi)))
 (let (($x10 (= (_ bv0 32) ?x6)))
 (let (($x61 (and $x10 $x50)))
 (let ((?x64 ((_ extract 29 0) rdi)))
 (let ((?x7 (concat ?x64 (_ bv0 2))))
 (let (($x47 (= R ?x7)))
 (let (($x36 (and (distinct (_ bv0 32) ?x6) true)))
 (let (($x51 (and $x36 $x47)))
 (let (($x48 (or $x51 $x61)))
 (let (($x63 (not $x48)))
 (let (($x56 (and $x63 $x66)))
 (let (($x65 (= (_ bv4 32) R)))
 (let (($x62 (and $x48 $x65)))
 (let (($x52 (or $x62 $x56)))
 (not $x52))))))))))))))))))
(check-sat)
